p tw 150 154
1 2
2 63
3 14
4 5
5 6
6 7
7 8
8 9
9 10
10 11
11 12
12 13
13 147
14 25
15 16
16 17
17 18
18 19
19 20
19 34
20 21
21 22
22 23
23 24
24 26
25 36
26 27
27 28
28 29
29 30
30 31
31 32
32 33
33 34
34 35
35 37
36 47
37 38
38 39
39 40
40 41
41 42
42 43
42 54
43 44
44 45
45 46
46 48
47 58
48 49
49 50
50 51
51 52
52 53
53 40
54 55
55 56
56 57
58 59
59 60
60 61
61 62
62 64
63 74
64 65
65 66
66 67
67 68
68 69
69 70
70 71
71 72
72 73
72 75
73 56
74 85
75 76
76 77
77 78
78 79
79 80
80 81
81 82
82 83
83 84
84 86
85 96
86 87
87 88
88 89
89 90
90 91
91 92
92 93
93 94
94 95
95 97
96 107
97 98
98 99
99 100
100 101
101 102
102 103
103 104
104 105
105 106
106 108
107 118
108 109
109 110
110 111
111 112
112 113
113 114
114 115
115 116
116 117
117 119
118 129
119 120
120 121
121 122
122 123
123 124
124 125
125 126
126 127
127 128
128 130
128 142
129 140
130 131
131 132
132 133
133 134
134 135
135 136
136 137
137 138
138 139
139 141
140 3
141 142
142 143
143 144
144 145
145 146
146 147
147 148
148 149
149 150
150 4
150 15
